Version identifier: 22.1.1.0 | 2022-11-28 | 9160aff4d
CPXPARAM_ClockType                               1
CPXPARAM_Read_DataCheck                          1
CPXPARAM_Threads                                 1
CPXPARAM_TimeLimit                               7200
CPXPARAM_MIP_Tolerances_AbsMIPGap                0
CPXPARAM_MIP_Tolerances_MIPGap                   0
CPXPARAM_MIP_Tolerances_Integrality              0
Tried aggregator 2 times.
MIP Presolve eliminated 2620 rows and 0 columns.
MIP Presolve modified 2150 coefficients.
Aggregator did 600 substitutions.
Reduced MIP has 4780 rows, 3000 columns, and 13710 nonzeros.
Reduced MIP has 3000 binaries, 0 generals, 0 SOSs, and 0 indicators.
Presolve time = 0.03 sec. (18.38 ticks)
Probing time = 0.00 sec. (2.21 ticks)
Tried aggregator 1 time.
Detecting symmetries...
MIP Presolve eliminated 500 rows and 0 columns.
Reduced MIP has 4280 rows, 3000 columns, and 12210 nonzeros.
Reduced MIP has 3000 binaries, 0 generals, 0 SOSs, and 0 indicators.
Presolve time = 0.02 sec. (14.46 ticks)
Probing time = 0.00 sec. (1.82 ticks)
Clique table members: 3380.
MIP emphasis: balance optimality and feasibility.
MIP search method: dynamic search.
Parallel mode: none, using 1 thread.
Root relaxation solution time = 0.69 sec. (533.08 ticks)

        Nodes                                         Cuts/
   Node  Left     Objective  IInf  Best Integer    Best Bound    ItCnt     Gap

      0     0     3533.3333  1608                   3533.3333     4099         
      0     0     3300.0000  1147                   Cuts: 182     6992         
      0     0     3300.0000  1357                   Cuts: 127     9076         
      0     0     3300.0000  1167                 ZeroHalf: 3     9299         
      0     0     3300.0000  1215                ZeroHalf: 38    10068         
*     0+    0                         3028.0000     3300.0000             8.98%
      0     2     3300.0000   952     3028.0000     3300.0000    10968    8.98%
Elapsed time = 6.21 sec. (4672.47 ticks, tree = 0.01 MB, solutions = 1)
      1     3     3300.0000   822     3028.0000     3300.0000    15366    8.98%
      3     5     3300.0000   996     3028.0000     3300.0000    17486    8.98%
      6     8     3300.0000   886     3028.0000     3300.0000    19962    8.98%
      8    10     3300.0000   999     3028.0000     3300.0000    22303    8.98%
     10    12     3300.0000   833     3028.0000     3300.0000    22875    8.98%
     14    16     3300.0000   765     3028.0000     3300.0000    24330    8.98%
     15    17     3300.0000   701     3028.0000     3300.0000    25837    8.98%
     17    19     3300.0000   736     3028.0000     3300.0000    27352    8.98%
     19    21     3300.0000   778     3028.0000     3300.0000    28983    8.98%
     28    30     3292.8571   924     3028.0000     3300.0000    34477    8.98%
Elapsed time = 11.87 sec. (9357.97 ticks, tree = 0.80 MB, solutions = 1)
     36    36     3300.0000   701     3028.0000     3300.0000    42085    8.98%
     39    39     3300.0000   827     3028.0000     3300.0000    48673    8.98%
     45    45     3300.0000   695     3028.0000     3300.0000    53415    8.98%
     50    50     3300.0000   846     3028.0000     3300.0000    59416    8.98%
     57    57     3300.0000   979     3028.0000     3300.0000    64532    8.98%
     61    61     3300.0000   577     3028.0000     3300.0000    71120    8.98%
     67    63     3300.0000   929     3028.0000     3300.0000    76795    8.98%
     73    69     3300.0000   912     3028.0000     3300.0000    80266    8.98%
     81    77     3300.0000  1021     3028.0000     3300.0000    85447    8.98%
     87    83     3300.0000   915     3028.0000     3300.0000    90315    8.98%
Elapsed time = 25.20 sec. (20368.66 ticks, tree = 2.32 MB, solutions = 1)
     94    90     3296.0000   894     3028.0000     3300.0000    95631    8.98%
    102    94     3300.0000   604     3028.0000     3300.0000   100891    8.98%
    110   102     3300.0000   931     3028.0000     3300.0000   104695    8.98%
    118   110     3300.0000   936     3028.0000     3300.0000   109481    8.98%
    120   112     3298.0000   928     3028.0000     3300.0000   112863    8.98%
    133   121     3300.0000  1014     3028.0000     3300.0000   119605    8.98%
    143   131     3276.8000   909     3028.0000     3300.0000   124046    8.98%
    153   135     3300.0000   506     3028.0000     3300.0000   130360    8.98%
    158   138     3266.0000  1060     3028.0000     3300.0000   135973    8.98%
    162   142     3242.8571   939     3028.0000     3300.0000   139594    8.98%
Elapsed time = 38.62 sec. (31241.51 ticks, tree = 4.47 MB, solutions = 1)
    166   142     3300.0000   671     3028.0000     3300.0000   147419    8.98%
    167   143     3300.0000   968     3028.0000     3300.0000   152886    8.98%
    175   151     3300.0000  1135     3028.0000     3300.0000   157286    8.98%
    184   160     3300.0000   992     3028.0000     3300.0000   162925    8.98%
    195   171     3298.0000   859     3028.0000     3300.0000   168084    8.98%
    207   179    infeasible           3028.0000     3300.0000   173778    8.98%
    215   187     3290.0000   714     3028.0000     3300.0000   179068    8.98%
    224   190    infeasible           3028.0000     3300.0000   184901    8.98%
    230   194     3266.0000  1075     3028.0000     3300.0000   190002    8.98%
    239   197     3300.0000   670     3028.0000     3300.0000   195069    8.98%
Elapsed time = 51.36 sec. (41544.55 ticks, tree = 6.47 MB, solutions = 1)
    243   201     3300.0000   764     3028.0000     3300.0000   202223    8.98%
    252   210     3300.0000   717     3028.0000     3300.0000   207052    8.98%
    260   218     3300.0000   867     3028.0000     3300.0000   211736    8.98%
    270   222    infeasible           3028.0000     3300.0000   216812    8.98%
    279   227     3300.0000   940     3028.0000     3300.0000   222820    8.98%
    283   231     3300.0000   829     3028.0000     3300.0000   224313    8.98%
    285   233     3300.0000   849     3028.0000     3300.0000   229190    8.98%
    287   235     3264.0000  1131     3028.0000     3300.0000   234407    8.98%
    295   243     3280.8000   689     3028.0000     3300.0000   242439    8.98%
    302   250     3300.0000   700     3028.0000     3300.0000   247394    8.98%
Elapsed time = 65.06 sec. (52781.18 ticks, tree = 8.24 MB, solutions = 1)
    312   256     3285.8286   824     3028.0000     3300.0000   253461    8.98%
    318   258     3300.0000  1059     3028.0000     3300.0000   260809    8.98%
    322   262     3300.0000   689     3028.0000     3300.0000   266295    8.98%
    332   270    infeasible           3028.0000     3300.0000   272845    8.98%
    337   273     3300.0000   851     3028.0000     3300.0000   277464    8.98%
    340   276     3300.0000   976     3028.0000     3300.0000   282437    8.98%
    347   283     3300.0000   796     3028.0000     3300.0000   288149    8.98%
    353   287     3287.8000   668     3028.0000     3300.0000   294861    8.98%
    370   292     3298.0000   400     3028.0000     3300.0000   300685    8.98%
    378   292     3298.0000   556     3028.0000     3300.0000   307858    8.98%
Elapsed time = 79.21 sec. (64081.75 ticks, tree = 9.76 MB, solutions = 1)
    390   294     3297.7333   853     3028.0000     3300.0000   313782    8.98%
    401   299     3300.0000   857     3028.0000     3300.0000   318431    8.98%
    405   303     3300.0000   910     3028.0000     3300.0000   323145    8.98%
    415   313     3300.0000   867     3028.0000     3300.0000   327904    8.98%
    423   321     3300.0000   823     3028.0000     3300.0000   333496    8.98%
    436   332     3300.0000   755     3028.0000     3300.0000   338657    8.98%
    444   336     3288.0000   427     3028.0000     3300.0000   343183    8.98%
    455   337     3300.0000  1008     3028.0000     3300.0000   349697    8.98%
    463   345     3300.0000   667     3028.0000     3300.0000   354791    8.98%
    471   347     3300.0000   951     3028.0000     3300.0000   360343    8.98%
Elapsed time = 91.80 sec. (74332.21 ticks, tree = 11.73 MB, solutions = 1)
    479   353    infeasible           3028.0000     3300.0000   366272    8.98%
    484   356     3223.1429  1209     3028.0000     3300.0000   372355    8.98%
    488   360     3183.4286   920     3028.0000     3300.0000   378745    8.98%
    494   360     3264.0000  1100     3028.0000     3300.0000   385098    8.98%
    499   365     3254.9286   870     3028.0000     3300.0000   390806    8.98%
    509   371     3298.8000   785     3028.0000     3300.0000   396777    8.98%
    519   377     3300.0000   917     3028.0000     3300.0000   403764    8.98%
    520   378     3224.0000  1253     3028.0000     3300.0000   405567    8.98%
    528   386     3290.8571  1034     3028.0000     3300.0000   411116    8.98%
    537   395     3300.0000   971     3028.0000     3300.0000   415999    8.98%
Elapsed time = 105.77 sec. (85490.57 ticks, tree = 13.46 MB, solutions = 1)
    547   403     3294.0000   839     3028.0000     3300.0000   420935    8.98%
    556   408     3264.0000  1176     3028.0000     3300.0000   427268    8.98%
    563   415     3252.5714   873     3028.0000     3300.0000   432550    8.98%
    569   417     3264.0000  1078     3028.0000     3300.0000   437854    8.98%
    575   421     3221.4286   886     3028.0000     3300.0000   443940    8.98%
    585   427     3300.0000   866     3028.0000     3300.0000   448871    8.98%
    595   437     3300.0000   815     3028.0000     3300.0000   453713    8.98%
    607   449     3279.7143   535     3028.0000     3300.0000   459464    8.98%
    631   463     3298.0000   816     3028.0000     3300.0000   465159    8.98%
    656   480     3276.8571   580     3028.0000     3300.0000   472180    8.98%
Elapsed time = 119.25 sec. (96124.91 ticks, tree = 16.49 MB, solutions = 1)
    680   496     3258.0000   202     3028.0000     3300.0000   478753    8.98%
    701   507     3278.0000   244     3028.0000     3300.0000   485003    8.98%
    718   512    infeasible           3028.0000     3300.0000   491818    8.98%
*   730+  483                         3262.0000     3300.0000             1.16%
    737   488     3266.8571   445     3262.0000     3300.0000   498158    1.16%
    754   493     3282.8571   495     3262.0000     3300.0000   504205    1.16%
*   764   461      integral     0     3266.0000     3300.0000   505023    1.04%
    781   470     3300.0000   933     3266.0000     3300.0000   509914    1.04%
    787   474     3300.0000   822     3266.0000     3300.0000   515605    1.04%
    793   478        cutoff           3266.0000     3300.0000   518859    1.04%
    800   483     3300.0000   850     3266.0000     3300.0000   523364    1.04%
    831   502    infeasible           3266.0000     3300.0000   538603    1.04%
Elapsed time = 136.33 sec. (109666.33 ticks, tree = 17.10 MB, solutions = 3)
    865   506     3300.0000  1052     3266.0000     3300.0000   558683    1.04%
    908   533     3298.4000   737     3266.0000     3300.0000   577856    1.04%
    941   540    infeasible           3266.0000     3300.0000   599189    1.04%
    967   558     3297.8480   929     3266.0000     3300.0000   621083    1.04%
   1000   579     3300.0000   859     3266.0000     3300.0000   640098    1.04%
   1062   601     3281.0000   664     3266.0000     3300.0000   660770    1.04%
   1118   607     3298.0000   647     3266.0000     3300.0000   682622    1.04%
   1176   616     3276.3571   676     3266.0000     3300.0000   706377    1.04%
   1223   629     3277.8571   728     3266.0000     3300.0000   731484    1.04%
   1269   636     3272.3571   682     3266.0000     3300.0000   755069    1.04%
Elapsed time = 186.42 sec. (149099.08 ticks, tree = 21.98 MB, solutions = 3)
   1295   637     3300.0000  1004     3266.0000     3300.0000   776318    1.04%
   1314   652     3300.0000   895     3266.0000     3300.0000   795959    1.04%
   1338   662     3300.0000   894     3266.0000     3300.0000   816724    1.04%
   1357   669     3300.0000   717     3266.0000     3300.0000   837030    1.04%
   1376   676     3295.6000   845     3266.0000     3300.0000   860788    1.04%
   1400   692     3300.0000  1010     3266.0000     3300.0000   881351    1.04%
   1439   713     3300.0000  1151     3266.0000     3300.0000   903633    1.04%

Performing restart 1

Repeating presolve.
Tried aggregator 3 times.
MIP Presolve eliminated 197 rows and 208 columns.
Aggregator did 44 substitutions.
Reduced MIP has 4039 rows, 2748 columns, and 11438 nonzeros.
Reduced MIP has 2748 binaries, 0 generals, 0 SOSs, and 0 indicators.
Presolve time = 0.02 sec. (14.41 ticks)
Tried aggregator 1 time.
MIP Presolve eliminated 4 rows and 3 columns.
Reduced MIP has 4035 rows, 2745 columns, and 11429 nonzeros.
Reduced MIP has 2745 binaries, 0 generals, 0 SOSs, and 0 indicators.
Presolve time = 0.02 sec. (13.99 ticks)
Represolve time = 0.06 sec. (35.95 ticks)
   1440     0     3300.0000  1008     3266.0000      Cuts: 19   908453    1.04%
   1440     0     3300.0000  1012     3266.0000      Cuts: 70   909107    1.04%
   1440     0     3300.0000   988     3266.0000   ZeroHalf: 4   909471    1.04%
   1440     0     3300.0000   677     3266.0000   ZeroHalf: 1   909582    1.04%
   1440     0     3300.0000   683     3266.0000      Cuts: 68   910048    1.04%
*  1440+    0                         3300.0000     3300.0000             0.00%
   1440     0        cutoff           3300.0000     3300.0000   910048    0.00%

Clique cuts applied:  2
Zero-half cuts applied:  151
Lift and project cuts applied:  1

Root node processing (before b&c):
  Real time             =    6.20 sec. (4670.58 ticks)
Sequential b&c:
  Real time             =  222.83 sec. (177480.71 ticks)
                          ------------
Total (root+branch&cut) =  229.03 sec. (182151.29 ticks)
Solution is feasible.

---------------------
@@@ MIP_optimal
>>> Benchmark flat50-9.cnf k 10 OPT 3300 TimeCost 230.69343090057373 TimeSolve 229.99255180358887 TimeRead 0.0017626285552978516 TimeTrans 0.6991164684295654
